sat
(:max-memory              68.78
 :memory                  21.07
 :num-allocs              2468722709
 :rlimit-count            59313759
 :sat-ate                 723
 :sat-backjumps           140910
 :sat-backtracks          175
 :sat-bce                 353
 :sat-conflicts           141085
 :sat-decisions           269687
 :sat-del-clause          222967
 :sat-elim-bool-vars-res  18069
 :sat-elim-clauses        51
 :sat-elim-literals       54221
 :sat-gc-clause           100080
 :sat-minimized-lits      3070742
 :sat-mk-clause-2ary      59716
 :sat-mk-clause-3ary      35268
 :sat-mk-clause-nary      266240
 :sat-mk-var              30235
 :sat-probing-assigned    54
 :sat-propagations-2ary   21673409
 :sat-propagations-nary   36133376
 :sat-restarts            19153
 :sat-scc-elim-binary     475
 :sat-scc-elim-vars       1125
 :sat-subs-resolution     18315
 :sat-subs-resolution-dyn 102858
 :sat-subsumed            28238
 :sat-tr                  1094
 :sat-units               65
 :time                    16.45
 :total-time              16.46)
